data/MCDM/NO_CORR/GEN_FROM_60/15_ITEMS_1000_GEN/K5015W10.KNP.mps
NAME          BLANK   
ROWS
 N  OBJROW
 L  R0000000
COLUMNS
    C0000000  OBJROW     -829.         R0000000  133.        
    C0000001  OBJROW     -454.         R0000000  746.        
    C0000002  OBJROW     -461.         R0000000  495.        
    C0000003  OBJROW     -997.         R0000000  15.         
    C0000004  OBJROW     -876.         R0000000  923.        
    C0000005  OBJROW     -366.         R0000000  41.         
    C0000006  OBJROW     -430.         R0000000  178.        
    C0000007  OBJROW     -771.         R0000000  290.        
    C0000008  OBJROW     -878.         R0000000  449.        
    C0000009  OBJROW     -619.         R0000000  473.        
    C0000010  OBJROW     -194.         R0000000  761.        
    C0000011  OBJROW     -194.         R0000000  867.        
    C0000012  OBJROW     -585.         R0000000  728.        
    C0000013  OBJROW     -798.         R0000000  569.        
    C0000014  OBJROW     -601.         R0000000  82.         
RHS
    RHS       R0000000  15551.      
BOUNDS
 BV BOUND     C0000000  1.          
 BV BOUND     C0000001  1.          
 BV BOUND     C0000002  1.          
 BV BOUND     C0000003  1.          
 BV BOUND     C0000004  1.          
 BV BOUND     C0000005  1.          
 BV BOUND     C0000006  1.          
 BV BOUND     C0000007  1.          
 BV BOUND     C0000008  1.          
 BV BOUND     C0000009  1.          
 BV BOUND     C0000010  1.          
 BV BOUND     C0000011  1.          
 BV BOUND     C0000012  1.          
 BV BOUND     C0000013  1.          
 BV BOUND     C0000014  1.          
ENDATA
