data/MCDM/NO_CORR/GEN_FROM_60/15_ITEMS_1000_GEN/K5015W10.KNP.txt
N 15
M 16
LC 15
LC 16
LC 17
LC 18
LC 19
LC 20
LC 21
LC 22
LC 23
LC 24
LC 25
LC 26
LC 27
LC 28
LC 29
LR 1
LR 2
LR 3
LR 4
LR 5
LR 6
LR 7
LR 8
LR 9
LR 10
LR 11
LR 12
LR 13
LR 14
LR 15
LR 16
LO -829
LO -454
LO -461
LO -997
LO -876
LO -366
LO -430
LO -771
LO -878
LO -619
LO -194
LO -194
LO -585
LO -798
LO -601
OS 1
IC 221
IC 678
IC 653
IC 707
IC 632
IC 151
IC 355
IC 644
IC 244
IC 293
IC 341
IC 732
IC 469
IC 917
IC 460
IB 3749
